\* Problem: Unknown *\

Maximize
 obj: + x_1 + x_2 + x_3 + x_4 + x_5 + x_6 + x_7 + x_8 + x_9 + x_10
 + x_11 + x_12 + x_13 + x_14 + x_15 + x_16 + x_17 + x_18 + x_19 + x_20

Subject To
 r_1: + x_1 = 1
 r_2: + x_2 = 0
 r_3: + x_3 = 0
 r_4: + x_4 = 0
 r_5: + x_5 = 0
 r_6: + x_6 = 0
 r_7: + x_7 = 0
 r_8: + x_8 = 0
 r_9: + x_9 = 0
 r_10: + x_10 = 0
 r_11: + x_11 = 0
 r_12: + x_12 = 0
 r_13: + x_13 = 0
 r_14: + x_14 = 0
 r_15: + x_15 = 0
 r_16: + 19 x_20 + 12 x_19 + 5 x_18 - 2 x_17 - 9 x_16 - 16 x_15
 - 23 x_14 - 30 x_13 - 37 x_12 - 44 x_11 - 51 x_10 - 58 x_9 - 65 x_8
 - 72 x_7 - 79 x_6 - 86 x_5 - 93 x_4 - 100 x_3 - 107 x_2 - 114 x_1 <= 0
 r_17: + 19 x_20 + 12 x_19 + 5 x_18 - 2 x_17 - 9 x_16 - 16 x_15
 - 23 x_14 - 30 x_13 - 37 x_12 - 44 x_11 - 51 x_10 - 58 x_9 - 65 x_8
 - 72 x_7 - 79 x_6 - 86 x_5 - 93 x_4 - 100 x_3 - 107 x_2 - 114 x_1 <= 0
 r_18: - 171 x_20 - 45 x_19 + 32 x_18 + 60 x_17 + 39 x_16 - 31 x_15
 - 150 x_14 - 318 x_13 - 535 x_12 - 801 x_11 - 1116 x_10 - 1480 x_9
 - 1893 x_8 - 2355 x_7 - 2866 x_6 - 3426 x_5 - 4035 x_4 - 4693 x_3
 - 5400 x_2 - 6156 x_1 <= 0
 r_19: - 171 x_20 - 45 x_19 + 32 x_18 + 60 x_17 + 39 x_16 - 31 x_15
 - 150 x_14 - 318 x_13 - 535 x_12 - 801 x_11 - 1116 x_10 - 1480 x_9
 - 1893 x_8 - 2355 x_7 - 2866 x_6 - 3426 x_5 - 4035 x_4 - 4693 x_3
 - 5400 x_2 - 6156 x_1 <= 0
 r_20: + 969 x_20 - 102 x_19 - 340 x_18 - 88 x_17 + 311 x_16 + 514 x_15
 + 178 x_14 - 1040 x_13 - 3483 x_12 - 7494 x_11 - 13416 x_10 - 21592 x_9
 - 32365 x_8 - 46078 x_7 - 63074 x_6 - 83696 x_5 - 108287 x_4
 - 137190 x_3 - 170748 x_2 - 209304 x_1 <= 0
 r_21: + 969 x_20 - 102 x_19 - 340 x_18 - 88 x_17 + 311 x_16 + 514 x_15
 + 178 x_14 - 1040 x_13 - 3483 x_12 - 7494 x_11 - 13416 x_10 - 21592 x_9
 - 32365 x_8 - 46078 x_7 - 63074 x_6 - 83696 x_5 - 108287 x_4
 - 137190 x_3 - 170748 x_2 - 209304 x_1 <= 0
 r_22: - 3876 x_20 + 1836 x_19 + 884 x_18 - 1244 x_17 - 1461 x_16
 + 919 x_15 + 4181 x_14 + 4209 x_13 - 5514 x_12 - 33906 x_11
 - 92286 x_10 - 194374 x_9 - 356291 x_8 - 596559 x_7 - 936101 x_6
 - 1398241 x_5 - 2008704 x_4 - 2795616 x_3 - 3789504 x_2 - 5023296 x_1
 <= 0
 r_23: - 3876 x_20 + 1836 x_19 + 884 x_18 - 1244 x_17 - 1461 x_16
 + 919 x_15 + 4181 x_14 + 4209 x_13 - 5514 x_12 - 33906 x_11
 - 92286 x_10 - 194374 x_9 - 356291 x_8 - 596559 x_7 - 936101 x_6
 - 1398241 x_5 - 2008704 x_4 - 2795616 x_3 - 3789504 x_2 - 5023296 x_1
 <= 0
 r_24: + 11628 x_20 - 9792 x_19 + 2108 x_18 + 6168 x_17 - 2757 x_16
 - 10604 x_15 - 909 x_14 + 28386 x_13 + 48126 x_12 - 18864 x_11
 - 314586 x_10 - 1062676 x_9 - 2585211 x_8 - 5319516 x_7 - 9834971 x_6
 - 16849818 x_5 - 27247968 x_4 - 42095808 x_3 - 62659008 x_2
 - 90419328 x_1 <= 0
 r_25: + 11628 x_20 - 9792 x_19 + 2108 x_18 + 6168 x_17 - 2757 x_16
 - 10604 x_15 - 909 x_14 + 28386 x_13 + 48126 x_12 - 18864 x_11
 - 314586 x_10 - 1062676 x_9 - 2585211 x_8 - 5319516 x_7 - 9834971 x_6
 - 16849818 x_5 - 27247968 x_4 - 42095808 x_3 - 62659008 x_2
 - 90419328 x_1 <= 0
 r_26: - 27132 x_20 + 32844 x_19 - 23800 x_18 - 4984 x_17 + 29267 x_16
 + 2121 x_15 - 62412 x_14 - 39480 x_13 + 178962 x_12 + 448854 x_11
 + 21084 x_10 - 2929108 x_9 - 11890375 x_8 - 32721157 x_7 - 74473224 x_6
 - 150332868 x_5 - 278679744 x_4 - 484263360 x_3 - 799497216 x_2
 - 1265870592 x_1 <= 0
 r_27: - 27132 x_20 + 32844 x_19 - 23800 x_18 - 4984 x_17 + 29267 x_16
 + 2121 x_15 - 62412 x_14 - 39480 x_13 + 178962 x_12 + 448854 x_11
 + 21084 x_10 - 2929108 x_9 - 11890375 x_8 - 32721157 x_7 - 74473224 x_6
 - 150332868 x_5 - 278679744 x_4 - 484263360 x_3 - 799497216 x_2
 - 1265870592 x_1 <= 0
 r_28: + 50388 x_20 - 79560 x_19 + 93704 x_18 - 54080 x_17 - 54717 x_16
 + 123006 x_15 + 73320 x_14 - 340632 x_13 - 398550 x_12 + 1124076 x_11
 + 3838284 x_10 + 1035680 x_9 - 28429343 x_8 - 132492750 x_7
 - 403292916 x_6 - 1000465128 x_5 - 2181142080 x_4 - 4337483904 x_3
 - 8042561280 x_2 - 14105415168 x_1 <= 0
 r_29: + 50388 x_20 - 79560 x_19 + 93704 x_18 - 54080 x_17 - 54717 x_16
 + 123006 x_15 + 73320 x_14 - 340632 x_13 - 398550 x_12 + 1124076 x_11
 + 3838284 x_10 + 1035680 x_9 - 28429343 x_8 - 132492750 x_7
 - 403292916 x_6 - 1000465128 x_5 - 2181142080 x_4 - 4337483904 x_3
 - 8042561280 x_2 - 14105415168 x_1 <= 0
 r_30: - 75582 x_20 + 147186 x_19 - 236470 x_18 + 271674 x_17
 - 107523 x_16 - 312819 x_15 + 498537 x_14 + 597825 x_13 - 1844517 x_12
 - 3111741 x_11 + 7470999 x_10 + 31536383 x_9 + 9321120 x_8
 - 293747688 x_7 - 1491997104 x_6 - 4912219728 x_5 - 13096152576 x_4
 - 30520488960 x_3 - 64587953664 x_2 - 126948736512 x_1 <= 0
 r_31: - 75582 x_20 + 147186 x_19 - 236470 x_18 + 271674 x_17
 - 107523 x_16 - 312819 x_15 + 498537 x_14 + 597825 x_13 - 1844517 x_12
 - 3111741 x_11 + 7470999 x_10 + 31536383 x_9 + 9321120 x_8
 - 293747688 x_7 - 1491997104 x_6 - 4912219728 x_5 - 13096152576 x_4
 - 30520488960 x_3 - 64587953664 x_2 - 126948736512 x_1 <= 0
 r_32: + 92378 x_20 - 213928 x_19 + 432718 x_18 - 714428 x_17
 + 808093 x_16 - 149864 x_15 - 1528241 x_14 + 2060806 x_13
 + 3803239 x_12 - 10375604 x_11 - 21575051 x_10 + 54787326 x_9
 + 253326744 x_8 + 15505776 x_7 - 3238977456 x_6 - 17103179808 x_5
 - 59672650752 x_4 - 168770055168 x_3 - 416480942592 x_2
 - 930957401088 x_1 <= 0
 r_33: + 92378 x_20 - 213928 x_19 + 432718 x_18 - 714428 x_17
 + 808093 x_16 - 149864 x_15 - 1528241 x_14 + 2060806 x_13
 + 3803239 x_12 - 10375604 x_11 - 21575051 x_10 + 54787326 x_9
 + 253326744 x_8 + 15505776 x_7 - 3238977456 x_6 - 17103179808 x_5
 - 59672650752 x_4 - 168770055168 x_3 - 416480942592 x_2
 - 930957401088 x_1 <= 0
 r_34: - 92378 x_20 + 247962 x_19 - 602888 x_18 + 1278992 x_17
 - 2199483 x_16 + 2499211 x_15 + 71786 x_14 - 7036854 x_13
 + 9131221 x_12 + 21575051 x_11 - 62253624 x_10 - 136916604 x_9
 + 445134096 x_8 + 1980600336 x_7 - 1165342464 x_6 - 37702387008 x_5
 - 199994116608 x_4 - 726800076288 x_3 - 2155901349888 x_2
 - 5585744406528 x_1 <= 0
 r_35: - 92378 x_20 + 247962 x_19 - 602888 x_18 + 1278992 x_17
 - 2199483 x_16 + 2499211 x_15 + 71786 x_14 - 7036854 x_13
 + 9131221 x_12 + 21575051 x_11 - 62253624 x_10 - 136916604 x_9
 + 445134096 x_8 + 1980600336 x_7 - 1165342464 x_6 - 37702387008 x_5
 - 199994116608 x_4 - 726800076288 x_3 - 2155901349888 x_2
 - 5585744406528 x_1 <= 0
 r_36: + 75582 x_20 - 230724 x_19 + 654160 x_18 - 1684176 x_17
 + 3790293 x_16 - 6907394 x_15 + 8159658 x_14 + 1553520 x_13
 - 31536383 x_12 + 44825994 x_11 + 112022676 x_10 - 398415672 x_9
 - 774781200 x_8 + 3876623712 x_7 + 14594883264 x_6 - 30099558528 x_5
 - 456307997184 x_4 - 2383072773120 x_3 - 8899774580736 x_2
 - 27420927086592 x_1 <= 0
 r_37: + 75582 x_20 - 230724 x_19 + 654160 x_18 - 1684176 x_17
 + 3790293 x_16 - 6907394 x_15 + 8159658 x_14 + 1553520 x_13
 - 31536383 x_12 + 44825994 x_11 + 112022676 x_10 - 398415672 x_9
 - 774781200 x_8 + 3876623712 x_7 + 14594883264 x_6 - 30099558528 x_5
 - 456307997184 x_4 - 2383072773120 x_3 - 8899774580736 x_2
 - 27420927086592 x_1 <= 0
 r_38: - 50388 x_20 + 172380 x_19 - 557804 x_18 + 1682980 x_17
 - 4631783 x_16 + 11202581 x_15 - 22082125 x_14 + 28429343 x_13
 + 6214080 x_12 - 138178224 x_11 + 242800416 x_10 + 516520800 x_9
 - 2648754432 x_8 - 3420817920 x_7 + 34433807616 x_6 + 91903548672 x_5
 - 545001799680 x_4 - 5665922555904 x_3 - 28864133775360 x_2
 - 109683708346368 x_1 <= 0
 r_39: - 50388 x_20 + 172380 x_19 - 557804 x_18 + 1682980 x_17
 - 4631783 x_16 + 11202581 x_15 - 22082125 x_14 + 28429343 x_13
 + 6214080 x_12 - 138178224 x_11 + 242800416 x_10 + 516520800 x_9
 - 2648754432 x_8 - 3420817920 x_7 + 34433807616 x_6 + 91903548672 x_5
 - 545001799680 x_4 - 5665922555904 x_3 - 28864133775360 x_2
 - 109683708346368 x_1 <= 0
 r_40: + 27132 x_20 - 102816 x_19 + 373660 x_18 - 1290184 x_17
 + 4175913 x_16 - 12412204 x_15 + 32721157 x_14 - 71342250 x_13
 + 105447888 x_12 + 4554144 x_11 - 581714784 x_10 + 1391608512 x_9
 + 1841978880 x_8 - 17471365632 x_7 - 3562465536 x_6 + 294943928832 x_5
 + 301363421184 x_4 - 8634569932800 x_3 - 71494239043584 x_2
 - 354362750042112 x_1 <= 0
 r_41: + 27132 x_20 - 102816 x_19 + 373660 x_18 - 1290184 x_17
 + 4175913 x_16 - 12412204 x_15 + 32721157 x_14 - 71342250 x_13
 + 105447888 x_12 + 4554144 x_11 - 581714784 x_10 + 1391608512 x_9
 + 1841978880 x_8 - 17471365632 x_7 - 3562465536 x_6 + 294943928832 x_5
 + 301363421184 x_4 - 8634569932800 x_3 - 71494239043584 x_2
 - 354362750042112 x_1 <= 0
 r_42: - 11628 x_20 + 48348 x_19 - 194888 x_18 + 756888 x_17
 - 2808303 x_16 + 9834971 x_15 - 31917096 x_14 + 93067596 x_13
 - 229538016 x_12 + 407703456 x_11 - 146686464 x_10 - 2245366656 x_9
 + 7946263296 x_8 + 1526770944 x_7 - 106863888384 x_6 + 166705247232 x_5
 + 2237732241408 x_4 - 4588657164288 x_3 - 127890315804672 x_2
 - 911218500108288 x_1 <= 0
 r_43: - 11628 x_20 + 48348 x_19 - 194888 x_18 + 756888 x_17
 - 2808303 x_16 + 9834971 x_15 - 31917096 x_14 + 93067596 x_13
 - 229538016 x_12 + 407703456 x_11 - 146686464 x_10 - 2245366656 x_9
 + 7946263296 x_8 + 1526770944 x_7 - 106863888384 x_6 + 166705247232 x_5
 + 2237732241408 x_4 - 4588657164288 x_3 - 127890315804672 x_2
 - 911218500108288 x_1 <= 0
 r_44: + 3876 x_20 - 17544 x_19 + 77656 x_18 - 334784 x_17
 + 1398241 x_16 - 5616606 x_15 + 21476124 x_14 - 76958856 x_13
 + 251908704 x_12 - 717615936 x_11 + 1581918336 x_10 - 1543567104 x_9
 - 7069503744 x_8 + 42134846976 x_7 - 55568415744 x_6 - 530046498816 x_5
 + 2707917225984 x_4 + 11545653510144 x_3 - 143876605280256 x_2
 - 1.82243700021658e+15 x_1 <= 0
 r_45: + 3876 x_20 - 17544 x_19 + 77656 x_18 - 334784 x_17
 + 1398241 x_16 - 5616606 x_15 + 21476124 x_14 - 76958856 x_13
 + 251908704 x_12 - 717615936 x_11 + 1581918336 x_10 - 1543567104 x_9
 - 7069503744 x_8 + 42134846976 x_7 - 55568415744 x_6 - 530046498816 x_5
 + 2707917225984 x_4 + 11545653510144 x_3 - 143876605280256 x_2
 - 1.82243700021658e+15 x_1 <= 0
 r_46: - 969 x_20 + 4743 x_19 - 22865 x_18 + 108287 x_17 - 502176 x_16
 + 2270664 x_15 - 9952848 x_14 + 41945040 x_13 - 167899392 x_12
 + 625936896 x_11 - 2097840384 x_10 + 5850102528 x_9 - 10480803840 x_8
 - 10762979328 x_7 + 186477686784 x_6 - 676979306496 x_5
 - 1149341073408 x_4 + 26643815792640 x_3 - 47958868426752 x_2
 - 2.73365550032486e+15 x_1 <= 0
 r_47: - 969 x_20 + 4743 x_19 - 22865 x_18 + 108287 x_17 - 502176 x_16
 + 2270664 x_15 - 9952848 x_14 + 41945040 x_13 - 167899392 x_12
 + 625936896 x_11 - 2097840384 x_10 + 5850102528 x_9 - 10480803840 x_8
 - 10762979328 x_7 + 186477686784 x_6 - 676979306496 x_5
 - 1149341073408 x_4 + 26643815792640 x_3 - 47958868426752 x_2
 - 2.73365550032486e+15 x_1 <= 0
 r_48: + 171 x_20 - 900 x_19 + 4693 x_18 - 24210 x_17 + 123336 x_16
 - 619056 x_15 + 3052080 x_14 - 14719968 x_13 + 69050880 x_12
 - 312408576 x_11 + 1345372416 x_10 - 5391567360 x_9 + 19228243968 x_8
 - 54419558400 x_7 + 67480252416 x_6 + 509367066624 x_5
 - 4701849845760 x_4 + 15045919506432 x_3 + 126949945835520 x_2
 - 2.89445876504986e+15 x_1 <= 0
 r_49: + 171 x_20 - 900 x_19 + 4693 x_18 - 24210 x_17 + 123336 x_16
 - 619056 x_15 + 3052080 x_14 - 14719968 x_13 + 69050880 x_12
 - 312408576 x_11 + 1345372416 x_10 - 5391567360 x_9 + 19228243968 x_8
 - 54419558400 x_7 + 67480252416 x_6 + 509367066624 x_5
 - 4701849845760 x_4 + 15045919506432 x_3 + 126949945835520 x_2
 - 2.89445876504986e+15 x_1 <= 0
 r_50: - 19 x_20 + 107 x_19 - 600 x_18 + 3348 x_17 - 18576 x_16
 + 102384 x_15 - 559872 x_14 + 3032640 x_13 - 16236288 x_12
 + 85660416 x_11 - 443418624 x_10 + 2237248512 x_9 - 10883911680 x_8
 + 50065993728 x_7 - 208971104256 x_6 + 705277476864 x_5
 - 940369969152 x_4 - 14105549537280 x_3 + 203119913336832 x_2
 - 1.9296391766999e+15 x_1 <= 0
 r_51: - 19 x_20 + 107 x_19 - 600 x_18 + 3348 x_17 - 18576 x_16
 + 102384 x_15 - 559872 x_14 + 3032640 x_13 - 16236288 x_12
 + 85660416 x_11 - 443418624 x_10 + 2237248512 x_9 - 10883911680 x_8
 + 50065993728 x_7 - 208971104256 x_6 + 705277476864 x_5
 - 940369969152 x_4 - 14105549537280 x_3 + 203119913336832 x_2
 - 1.9296391766999e+15 x_1 <= 0
 r_52: + x_20 - 6 x_19 + 36 x_18 - 216 x_17 + 1296 x_16 - 7776 x_15
 + 46656 x_14 - 279936 x_13 + 1679616 x_12 - 10077696 x_11
 + 60466176 x_10 - 362797056 x_9 + 2176782336 x_8 - 13060694016 x_7
 + 78364164096 x_6 - 470184984576 x_5 + 2821109907456 x_4
 - 16926659444736 x_3 + 101559956668416 x_2 - 609359740010496 x_1 <= 0
 r_53: + x_20 - 6 x_19 + 36 x_18 - 216 x_17 + 1296 x_16 - 7776 x_15
 + 46656 x_14 - 279936 x_13 + 1679616 x_12 - 10077696 x_11
 + 60466176 x_10 - 362797056 x_9 + 2176782336 x_8 - 13060694016 x_7
 + 78364164096 x_6 - 470184984576 x_5 + 2821109907456 x_4
 - 16926659444736 x_3 + 101559956668416 x_2 - 609359740010496 x_1 <= 0
 r_54: + x_20 + x_19 + x_18 + x_17 + x_16 + x_15 + x_14 + x_13 + x_12
 + x_11 + x_10 + x_9 + x_8 + x_7 + x_6 + x_5 + x_4 + x_3 + x_2 + x_1
 <= 343

Generals
 x_1
 x_2
 x_3
 x_4
 x_5
 x_6
 x_7
 x_8
 x_9
 x_10
 x_11
 x_12
 x_13
 x_14
 x_15
 x_16
 x_17
 x_18
 x_19
 x_20

End
